Traveling Salesman Problem/TSP_generados/Aleatorio1621103276_7.tsp
NAME: Aleatorio1621103276_7.tsp
COMMENT: Randomly generated scenario
TYPE: TSP
DIMENSION: 7
EDGE_WEIGHT_TYPE: ATT
NODE_COORD_SECTION
1 19.45 8.83
2 38.65 22.62
3 19.82 0.28
4 7.71 13.73
5 41.14 40.43
6 36.12 2.87
7 44.29 24.66
