Traveling Salesman Problem/TSP_generados/Aleatorio1621103276_7.opt.tour
NAME: Aleatorio1621103276_7.opt.tour
COMMENT: Optimal solution for Aleatorio1621103276_7 (122.55835780485921)
TYPE: TOUR
DIMENSION: 7
TOUR_SECTION
1 3 6 2 7 5 4
-1
EOF
